<?xml version="1.0"?>
<VTKFile type="UnstructuredGrid" version="0.1" byte_order="LittleEndian" compressor="vtkZLibDataCompressor">
  <UnstructuredGrid>
    <Piece NumberOfPoints="144" NumberOfCells="36">
      <PointData>
      </PointData>
      <CellData>
        <DataArray type="Float64" Name="color" NumberOfComponents="3" format="ascii" RangeMin="0.61181132459" RangeMax="1.1806615688">
          0.093990734842 0.089427609141 0.90923018852 0.093990734842 0.089427609141 0.90923018852
          0.093990734842 0.089427609141 0.90923018852 0.093990734842 0.089427609141 0.90923018852
          0.093990734842 0.089427609141 0.90923018852 0.093990734842 0.089427609141 0.90923018852
          0.636406829 0.014662911364 0.45282971029 0.636406829 0.014662911364 0.45282971029
          0.636406829 0.014662911364 0.45282971029 0.636406829 0.014662911364 0.45282971029
          0.636406829 0.014662911364 0.45282971029 0.636406829 0.014662911364 0.45282971029
          0.4272941439 0.55239594076 0.069372770963 0.4272941439 0.55239594076 0.069372770963
          0.4272941439 0.55239594076 0.069372770963 0.4272941439 0.55239594076 0.069372770963
          0.4272941439 0.55239594076 0.069372770963 0.4272941439 0.55239594076 0.069372770963
          0.53957768321 0.36580244316 0.79082256029 0.53957768321 0.36580244316 0.79082256029
          0.53957768321 0.36580244316 0.79082256029 0.53957768321 0.36580244316 0.79082256029
          0.53957768321 0.36580244316 0.79082256029 0.53957768321 0.36580244316 0.79082256029
          0.11874559816 0.59783958088 0.05291895071 0.11874559816 0.59783958088 0.05291895071
          0.11874559816 0.59783958088 0.05291895071 0.11874559816 0.59783958088 0.05291895071
          0.11874559816 0.59783958088 0.05291895071 0.11874559816 0.59783958088 0.05291895071
          0.67039167349 0.3119705474 0.92044072148 0.67039167349 0.3119705474 0.92044072148
          0.67039167349 0.3119705474 0.92044072148 0.67039167349 0.3119705474 0.92044072148
          0.67039167349 0.3119705474 0.92044072148 0.67039167349 0.3119705474 0.92044072148
        </DataArray>
        <DataArray type="Float64" Name="stressVec" NumberOfComponents="3" format="ascii" RangeMin="0" RangeMax="4571645.2811">
          139043.6423 0 0 139043.6423 0 0
          139043.6423 0 0 139043.6423 0 0
          139043.6423 0 0 139043.6423 0 0
          -162055.26491 0 0 -162055.26491 0 0
          -162055.26491 0 0 -162055.26491 0 0
          -162055.26491 0 0 -162055.26491 0 0
          0 173038.783 0 0 173038.783 0
          0 173038.783 0 0 173038.783 0
          0 173038.783 0 0 173038.783 0
          0 -154768.59071 0 0 -154768.59071 0
          0 -154768.59071 0 0 -154768.59071 0
          0 -154768.59071 0 0 -154768.59071 0
          0 0 4571645.2811 0 0 4571645.2811
          0 0 4571645.2811 0 0 4571645.2811
          0 0 4571645.2811 0 0 4571645.2811
          0 0 0 0 0 0
          0 0 0 0 0 0
          0 0 0 0 0 0
        </DataArray>
        <DataArray type="Float64" Name="stressLen" format="ascii" RangeMin="0" RangeMax="4571645.2811">
          139043.6423 139043.6423 139043.6423 139043.6423 139043.6423 139043.6423
          162055.26491 162055.26491 162055.26491 162055.26491 162055.26491 162055.26491
          173038.783 173038.783 173038.783 173038.783 173038.783 173038.783
          154768.59071 154768.59071 154768.59071 154768.59071 154768.59071 154768.59071
          4571645.2811 4571645.2811 4571645.2811 4571645.2811 4571645.2811 4571645.2811
          0 0 0 0 0 0
        </DataArray>
        <DataArray type="Float64" Name="forceVec" NumberOfComponents="3" format="ascii" RangeMin="0" RangeMax="0.24024950812">
          -0.010308219204 0 0 -0.010308219204 0 0
          -0.010308219204 0 0 -0.010308219204 0 0
          -0.010308219204 0 0 -0.010308219204 0 0
          0.010155542009 0 0 0.010155542009 0 0
          0.010155542009 0 0 0.010155542009 0 0
          0.010155542009 0 0 0.010155542009 0 0
          0 -0.0097948902723 0 0 -0.0097948902723 0
          0 -0.0097948902723 0 0 -0.0097948902723 0
          0 -0.0097948902723 0 0 -0.0097948902723 0
          0 0.0096286803025 0 0 0.0096286803025 0
          0 0.0096286803025 0 0 0.0096286803025 0
          0 0.0096286803025 0 0 0.0096286803025 0
          0 0 -0.24024950812 0 0 -0.24024950812
          0 0 -0.24024950812 0 0 -0.24024950812
          0 0 -0.24024950812 0 0 -0.24024950812
          0 0 0 0 0 0
          0 0 0 0 0 0
          0 0 0 0 0 0
        </DataArray>
        <DataArray type="Float64" Name="forceLen" format="ascii" RangeMin="0" RangeMax="0.24024950812">
          0.010308219204 0.010308219204 0.010308219204 0.010308219204 0.010308219204 0.010308219204
          0.010155542009 0.010155542009 0.010155542009 0.010155542009 0.010155542009 0.010155542009
          0.0097948902723 0.0097948902723 0.0097948902723 0.0097948902723 0.0097948902723 0.0097948902723
          0.0096286803025 0.0096286803025 0.0096286803025 0.0096286803025 0.0096286803025 0.0096286803025
          0.24024950812 0.24024950812 0.24024950812 0.24024950812 0.24024950812 0.24024950812
          0 0 0 0 0 0
        </DataArray>
        <DataArray type="Float64" Name="torqueVec" NumberOfComponents="3" format="ascii" RangeMin="0" RangeMax="0">
          0 0 0 0 0 0
          0 0 0 0 0 0
          0 0 0 0 0 0
          0 0 0 0 0 0
          0 0 0 0 0 0
          0 0 0 0 0 0
          0 0 0 0 0 0
          0 0 0 0 0 0
          0 0 0 0 0 0
          0 0 0 0 0 0
          0 0 0 0 0 0
          0 0 0 0 0 0
          0 0 0 0 0 0
          0 0 0 0 0 0
          0 0 0 0 0 0
          0 0 0 0 0 0
          0 0 0 0 0 0
          0 0 0 0 0 0
        </DataArray>
        <DataArray type="Float64" Name="torqueLen" format="ascii" RangeMin="0" RangeMax="0">
          0 0 0 0 0 0
          0 0 0 0 0 0
          0 0 0 0 0 0
          0 0 0 0 0 0
          0 0 0 0 0 0
          0 0 0 0 0 0
        </DataArray>
        <DataArray type="Float64" Name="materialId" format="ascii" RangeMin="0" RangeMax="0">
          0 0 0 0 0 0
          0 0 0 0 0 0
          0 0 0 0 0 0
          0 0 0 0 0 0
          0 0 0 0 0 0
          0 0 0 0 0 0
        </DataArray>
        <DataArray type="Float64" Name="mask" format="ascii" RangeMin="1" RangeMax="1">
          1 1 1 1 1 1
          1 1 1 1 1 1
          1 1 1 1 1 1
          1 1 1 1 1 1
          1 1 1 1 1 1
          1 1 1 1 1 1
        </DataArray>
      </CellData>
      <Points>
        <DataArray type="Float32" Name="Points" NumberOfComponents="3" format="ascii" RangeMin="0.017677669793" RangeMax="3.2509854275">
          0 -0.012500000186 -0.64999997616 0 0.0625 -0.64999997616
          0 0.0625 -0.64999997616 0 -0.012500000186 -0.64999997616
          0 -0.012500000186 3.25 0 -0.012500000186 3.25
          0 0.0625 3.25 0 0.0625 3.25
          0 -0.012500000186 -0.64999997616 0 -0.012500000186 3.25
          0 0.0625 3.25 0 0.0625 -0.64999997616
          0 0.0625 3.25 0 -0.012500000186 3.25
          0 -0.012500000186 -0.64999997616 0 0.0625 -0.64999997616
          0 0.0625 3.25 0 0.0625 3.25
          0 0.0625 -0.64999997616 0 0.0625 -0.64999997616
          0 -0.012500000186 -0.64999997616 0 -0.012500000186 3.25
          0 -0.012500000186 3.25 0 -0.012500000186 -0.64999997616
          0.050000000745 -0.012500000186 -0.64999997616 0.050000000745 0.0625 -0.64999997616
          0.050000000745 0.0625 -0.64999997616 0.050000000745 -0.012500000186 -0.64999997616
          0.050000000745 -0.012500000186 3.25 0.050000000745 -0.012500000186 3.25
          0.050000000745 0.0625 3.25 0.050000000745 0.0625 3.25
          0.050000000745 -0.012500000186 -0.64999997616 0.050000000745 -0.012500000186 3.25
          0.050000000745 0.0625 3.25 0.050000000745 0.0625 -0.64999997616
          0.050000000745 0.0625 3.25 0.050000000745 -0.012500000186 3.25
          0.050000000745 -0.012500000186 -0.64999997616 0.050000000745 0.0625 -0.64999997616
          0.050000000745 0.0625 3.25 0.050000000745 0.0625 3.25
          0.050000000745 0.0625 -0.64999997616 0.050000000745 0.0625 -0.64999997616
          0.050000000745 -0.012500000186 -0.64999997616 0.050000000745 -0.012500000186 3.25
          0.050000000745 -0.012500000186 3.25 0.050000000745 -0.012500000186 -0.64999997616
          -0.012500000186 0 -0.64999997616 -0.012500000186 0 -0.64999997616
          0.0625 0 -0.64999997616 0.0625 0 -0.64999997616
          -0.012500000186 0 3.25 0.0625 0 3.25
          0.0625 0 3.25 -0.012500000186 0 3.25
          -0.012500000186 0 -0.64999997616 -0.012500000186 0 3.25
          -0.012500000186 0 3.25 -0.012500000186 0 -0.64999997616
          0.0625 0 3.25 0.0625 0 3.25
          0.0625 0 -0.64999997616 0.0625 0 -0.64999997616
          -0.012500000186 0 3.25 0.0625 0 3.25
          0.0625 0 -0.64999997616 -0.012500000186 0 -0.64999997616
          0.0625 0 -0.64999997616 0.0625 0 3.25
          -0.012500000186 0 3.25 -0.012500000186 0 -0.64999997616
          -0.012500000186 0.050000000745 -0.64999997616 -0.012500000186 0.050000000745 -0.64999997616
          0.0625 0.050000000745 -0.64999997616 0.0625 0.050000000745 -0.64999997616
          -0.012500000186 0.050000000745 3.25 0.0625 0.050000000745 3.25
          0.0625 0.050000000745 3.25 -0.012500000186 0.050000000745 3.25
          -0.012500000186 0.050000000745 -0.64999997616 -0.012500000186 0.050000000745 3.25
          -0.012500000186 0.050000000745 3.25 -0.012500000186 0.050000000745 -0.64999997616
          0.0625 0.050000000745 3.25 0.0625 0.050000000745 3.25
          0.0625 0.050000000745 -0.64999997616 0.0625 0.050000000745 -0.64999997616
          -0.012500000186 0.050000000745 3.25 0.0625 0.050000000745 3.25
          0.0625 0.050000000745 -0.64999997616 -0.012500000186 0.050000000745 -0.64999997616
          0.0625 0.050000000745 -0.64999997616 0.0625 0.050000000745 3.25
          -0.012500000186 0.050000000745 3.25 -0.012500000186 0.050000000745 -0.64999997616
          -0.012500000186 -0.012500000186 0 -0.012500000186 0.0625 0
          0.0625 0.0625 0 0.0625 -0.012500000186 0
          -0.012500000186 -0.012500000186 0 0.0625 -0.012500000186 0
          0.0625 0.0625 0 -0.012500000186 0.0625 0
          -0.012500000186 -0.012500000186 0 -0.012500000186 -0.012500000186 0
          -0.012500000186 0.0625 0 -0.012500000186 0.0625 0
          0.0625 0.0625 0 0.0625 -0.012500000186 0
          0.0625 -0.012500000186 0 0.0625 0.0625 0
          -0.012500000186 0.0625 0 0.0625 0.0625 0
          0.0625 0.0625 0 -0.012500000186 0.0625 0
          0.0625 -0.012500000186 0 0.0625 -0.012500000186 0
          -0.012500000186 -0.012500000186 0 -0.012500000186 -0.012500000186 0
          -0.012500000186 -0.012500000186 0.72768181562 -0.012500000186 0.0625 0.72768181562
          0.0625 0.0625 0.72768181562 0.0625 -0.012500000186 0.72768181562
          -0.012500000186 -0.012500000186 0.72768181562 0.0625 -0.012500000186 0.72768181562
          0.0625 0.0625 0.72768181562 -0.012500000186 0.0625 0.72768181562
          -0.012500000186 -0.012500000186 0.72768181562 -0.012500000186 -0.012500000186 0.72768181562
          -0.012500000186 0.0625 0.72768181562 -0.012500000186 0.0625 0.72768181562
          0.0625 0.0625 0.72768181562 0.0625 -0.012500000186 0.72768181562
          0.0625 -0.012500000186 0.72768181562 0.0625 0.0625 0.72768181562
          -0.012500000186 0.0625 0.72768181562 0.0625 0.0625 0.72768181562
          0.0625 0.0625 0.72768181562 -0.012500000186 0.0625 0.72768181562
          0.0625 -0.012500000186 0.72768181562 0.0625 -0.012500000186 0.72768181562
          -0.012500000186 -0.012500000186 0.72768181562 -0.012500000186 -0.012500000186 0.72768181562
        </DataArray>
      </Points>
      <Cells>
        <DataArray type="Int64" Name="connectivity" format="ascii" RangeMin="0" RangeMax="143">
          0 1 2 3 4 5
          6 7 8 9 10 11
          12 13 14 15 16 17
          18 19 20 21 22 23
          24 25 26 27 28 29
          30 31 32 33 34 35
          36 37 38 39 40 41
          42 43 44 45 46 47
          48 49 50 51 52 53
          54 55 56 57 58 59
          60 61 62 63 64 65
          66 67 68 69 70 71
          72 73 74 75 76 77
          78 79 80 81 82 83
          84 85 86 87 88 89
          90 91 92 93 94 95
          96 97 98 99 100 101
          102 103 104 105 106 107
          108 109 110 111 112 113
          114 115 116 117 118 119
          120 121 122 123 124 125
          126 127 128 129 130 131
          132 133 134 135 136 137
          138 139 140 141 142 143
        </DataArray>
        <DataArray type="Int64" Name="offsets" format="ascii" RangeMin="4" RangeMax="144">
          4 8 12 16 20 24
          28 32 36 40 44 48
          52 56 60 64 68 72
          76 80 84 88 92 96
          100 104 108 112 116 120
          124 128 132 136 140 144
        </DataArray>
        <DataArray type="UInt8" Name="types" format="ascii" RangeMin="9" RangeMax="9">
          9 9 9 9 9 9
          9 9 9 9 9 9
          9 9 9 9 9 9
          9 9 9 9 9 9
          9 9 9 9 9 9
          9 9 9 9 9 9
        </DataArray>
      </Cells>
    </Piece>
  </UnstructuredGrid>
</VTKFile>
