<?xml version="1.0"?>
<VTKFile type="UnstructuredGrid" version="0.1" byte_order="LittleEndian" compressor="vtkZLibDataCompressor">
  <UnstructuredGrid>
    <Piece NumberOfPoints="144" NumberOfCells="36">
      <PointData>
      </PointData>
      <CellData>
        <DataArray type="Float64" Name="color" NumberOfComponents="3" format="ascii" RangeMin="0.45845408409" RangeMax="1.5010822378">
          0.94785739405 0.84654364583 0.79886050148 0.94785739405 0.84654364583 0.79886050148
          0.94785739405 0.84654364583 0.79886050148 0.94785739405 0.84654364583 0.79886050148
          0.94785739405 0.84654364583 0.79886050148 0.94785739405 0.84654364583 0.79886050148
          0.36790460952 0.25716946757 0.093221298356 0.36790460952 0.25716946757 0.093221298356
          0.36790460952 0.25716946757 0.093221298356 0.36790460952 0.25716946757 0.093221298356
          0.36790460952 0.25716946757 0.093221298356 0.36790460952 0.25716946757 0.093221298356
          0.14142336441 0.20577591289 0.60992327464 0.14142336441 0.20577591289 0.60992327464
          0.14142336441 0.20577591289 0.60992327464 0.14142336441 0.20577591289 0.60992327464
          0.14142336441 0.20577591289 0.60992327464 0.14142336441 0.20577591289 0.60992327464
          0.72230824937 0.81665860357 0.47038652928 0.72230824937 0.81665860357 0.47038652928
          0.72230824937 0.81665860357 0.47038652928 0.72230824937 0.81665860357 0.47038652928
          0.72230824937 0.81665860357 0.47038652928 0.72230824937 0.81665860357 0.47038652928
          0.83894826234 0.60950468522 0.94206572774 0.83894826234 0.60950468522 0.94206572774
          0.83894826234 0.60950468522 0.94206572774 0.83894826234 0.60950468522 0.94206572774
          0.83894826234 0.60950468522 0.94206572774 0.83894826234 0.60950468522 0.94206572774
          0.90995486241 0.90524376411 0.1615450308 0.90995486241 0.90524376411 0.1615450308
          0.90995486241 0.90524376411 0.1615450308 0.90995486241 0.90524376411 0.1615450308
          0.90995486241 0.90524376411 0.1615450308 0.90995486241 0.90524376411 0.1615450308
        </DataArray>
        <DataArray type="Float64" Name="stressVec" NumberOfComponents="3" format="ascii" RangeMin="0" RangeMax="1619630.8583">
          144259.39757 0 0 144259.39757 0 0
          144259.39757 0 0 144259.39757 0 0
          144259.39757 0 0 144259.39757 0 0
          -150650.22406 0 0 -150650.22406 0 0
          -150650.22406 0 0 -150650.22406 0 0
          -150650.22406 0 0 -150650.22406 0 0
          0 186329.26149 0 0 186329.26149 0
          0 186329.26149 0 0 186329.26149 0
          0 186329.26149 0 0 186329.26149 0
          0 -160019.70387 0 0 -160019.70387 0
          0 -160019.70387 0 0 -160019.70387 0
          0 -160019.70387 0 0 -160019.70387 0
          0 0 1619630.8583 0 0 1619630.8583
          0 0 1619630.8583 0 0 1619630.8583
          0 0 1619630.8583 0 0 1619630.8583
          0 0 0 0 0 0
          0 0 0 0 0 0
          0 0 0 0 0 0
        </DataArray>
        <DataArray type="Float64" Name="stressLen" format="ascii" RangeMin="0" RangeMax="1619630.8583">
          144259.39757 144259.39757 144259.39757 144259.39757 144259.39757 144259.39757
          150650.22406 150650.22406 150650.22406 150650.22406 150650.22406 150650.22406
          186329.26149 186329.26149 186329.26149 186329.26149 186329.26149 186329.26149
          160019.70387 160019.70387 160019.70387 160019.70387 160019.70387 160019.70387
          1619630.8583 1619630.8583 1619630.8583 1619630.8583 1619630.8583 1619630.8583
          0 0 0 0 0 0
        </DataArray>
        <DataArray type="Float64" Name="forceVec" NumberOfComponents="3" format="ascii" RangeMin="0" RangeMax="0.49937654198">
          -0.057439158066 0 0 -0.057439158066 0 0
          -0.057439158066 0 0 -0.057439158066 0 0
          -0.057439158066 0 0 -0.057439158066 0 0
          0.057436903357 0 0 0.057436903357 0 0
          0.057436903357 0 0 0.057436903357 0 0
          0.057436903357 0 0 0.057436903357 0 0
          0 -0.060105711378 0 0 -0.060105711378 0
          0 -0.060105711378 0 0 -0.060105711378 0
          0 -0.060105711378 0 0 -0.060105711378 0
          0 0.060103987677 0 0 0.060103987677 0
          0 0.060103987677 0 0 0.060103987677 0
          0 0.060103987677 0 0 0.060103987677 0
          0 0 -0.49937654198 0 0 -0.49937654198
          0 0 -0.49937654198 0 0 -0.49937654198
          0 0 -0.49937654198 0 0 -0.49937654198
          0 0 0 0 0 0
          0 0 0 0 0 0
          0 0 0 0 0 0
        </DataArray>
        <DataArray type="Float64" Name="forceLen" format="ascii" RangeMin="0" RangeMax="0.49937654198">
          0.057439158066 0.057439158066 0.057439158066 0.057439158066 0.057439158066 0.057439158066
          0.057436903357 0.057436903357 0.057436903357 0.057436903357 0.057436903357 0.057436903357
          0.060105711378 0.060105711378 0.060105711378 0.060105711378 0.060105711378 0.060105711378
          0.060103987677 0.060103987677 0.060103987677 0.060103987677 0.060103987677 0.060103987677
          0.49937654198 0.49937654198 0.49937654198 0.49937654198 0.49937654198 0.49937654198
          0 0 0 0 0 0
        </DataArray>
        <DataArray type="Float64" Name="torqueVec" NumberOfComponents="3" format="ascii" RangeMin="0" RangeMax="0">
          0 0 0 0 0 0
          0 0 0 0 0 0
          0 0 0 0 0 0
          0 0 0 0 0 0
          0 0 0 0 0 0
          0 0 0 0 0 0
          0 0 0 0 0 0
          0 0 0 0 0 0
          0 0 0 0 0 0
          0 0 0 0 0 0
          0 0 0 0 0 0
          0 0 0 0 0 0
          0 0 0 0 0 0
          0 0 0 0 0 0
          0 0 0 0 0 0
          0 0 0 0 0 0
          0 0 0 0 0 0
          0 0 0 0 0 0
        </DataArray>
        <DataArray type="Float64" Name="torqueLen" format="ascii" RangeMin="0" RangeMax="0">
          0 0 0 0 0 0
          0 0 0 0 0 0
          0 0 0 0 0 0
          0 0 0 0 0 0
          0 0 0 0 0 0
          0 0 0 0 0 0
        </DataArray>
        <DataArray type="Float64" Name="materialId" format="ascii" RangeMin="0" RangeMax="0">
          0 0 0 0 0 0
          0 0 0 0 0 0
          0 0 0 0 0 0
          0 0 0 0 0 0
          0 0 0 0 0 0
          0 0 0 0 0 0
        </DataArray>
        <DataArray type="Float64" Name="mask" format="ascii" RangeMin="1" RangeMax="1">
          1 1 1 1 1 1
          1 1 1 1 1 1
          1 1 1 1 1 1
          1 1 1 1 1 1
          1 1 1 1 1 1
          1 1 1 1 1 1
        </DataArray>
      </CellData>
      <Points>
        <DataArray type="Float32" Name="Points" NumberOfComponents="3" format="ascii" RangeMin="0.017677669793" RangeMax="1.3024615642">
          0 -0.012500000186 -0.25999999046 0 0.0625 -0.25999999046
          0 0.0625 -0.25999999046 0 -0.012500000186 -0.25999999046
          0 -0.012500000186 1.2999999523 0 -0.012500000186 1.2999999523
          0 0.0625 1.2999999523 0 0.0625 1.2999999523
          0 -0.012500000186 -0.25999999046 0 -0.012500000186 1.2999999523
          0 0.0625 1.2999999523 0 0.0625 -0.25999999046
          0 0.0625 1.2999999523 0 -0.012500000186 1.2999999523
          0 -0.012500000186 -0.25999999046 0 0.0625 -0.25999999046
          0 0.0625 1.2999999523 0 0.0625 1.2999999523
          0 0.0625 -0.25999999046 0 0.0625 -0.25999999046
          0 -0.012500000186 -0.25999999046 0 -0.012500000186 1.2999999523
          0 -0.012500000186 1.2999999523 0 -0.012500000186 -0.25999999046
          0.050000000745 -0.012500000186 -0.25999999046 0.050000000745 0.0625 -0.25999999046
          0.050000000745 0.0625 -0.25999999046 0.050000000745 -0.012500000186 -0.25999999046
          0.050000000745 -0.012500000186 1.2999999523 0.050000000745 -0.012500000186 1.2999999523
          0.050000000745 0.0625 1.2999999523 0.050000000745 0.0625 1.2999999523
          0.050000000745 -0.012500000186 -0.25999999046 0.050000000745 -0.012500000186 1.2999999523
          0.050000000745 0.0625 1.2999999523 0.050000000745 0.0625 -0.25999999046
          0.050000000745 0.0625 1.2999999523 0.050000000745 -0.012500000186 1.2999999523
          0.050000000745 -0.012500000186 -0.25999999046 0.050000000745 0.0625 -0.25999999046
          0.050000000745 0.0625 1.2999999523 0.050000000745 0.0625 1.2999999523
          0.050000000745 0.0625 -0.25999999046 0.050000000745 0.0625 -0.25999999046
          0.050000000745 -0.012500000186 -0.25999999046 0.050000000745 -0.012500000186 1.2999999523
          0.050000000745 -0.012500000186 1.2999999523 0.050000000745 -0.012500000186 -0.25999999046
          -0.012500000186 0 -0.25999999046 -0.012500000186 0 -0.25999999046
          0.0625 0 -0.25999999046 0.0625 0 -0.25999999046
          -0.012500000186 0 1.2999999523 0.0625 0 1.2999999523
          0.0625 0 1.2999999523 -0.012500000186 0 1.2999999523
          -0.012500000186 0 -0.25999999046 -0.012500000186 0 1.2999999523
          -0.012500000186 0 1.2999999523 -0.012500000186 0 -0.25999999046
          0.0625 0 1.2999999523 0.0625 0 1.2999999523
          0.0625 0 -0.25999999046 0.0625 0 -0.25999999046
          -0.012500000186 0 1.2999999523 0.0625 0 1.2999999523
          0.0625 0 -0.25999999046 -0.012500000186 0 -0.25999999046
          0.0625 0 -0.25999999046 0.0625 0 1.2999999523
          -0.012500000186 0 1.2999999523 -0.012500000186 0 -0.25999999046
          -0.012500000186 0.050000000745 -0.25999999046 -0.012500000186 0.050000000745 -0.25999999046
          0.0625 0.050000000745 -0.25999999046 0.0625 0.050000000745 -0.25999999046
          -0.012500000186 0.050000000745 1.2999999523 0.0625 0.050000000745 1.2999999523
          0.0625 0.050000000745 1.2999999523 -0.012500000186 0.050000000745 1.2999999523
          -0.012500000186 0.050000000745 -0.25999999046 -0.012500000186 0.050000000745 1.2999999523
          -0.012500000186 0.050000000745 1.2999999523 -0.012500000186 0.050000000745 -0.25999999046
          0.0625 0.050000000745 1.2999999523 0.0625 0.050000000745 1.2999999523
          0.0625 0.050000000745 -0.25999999046 0.0625 0.050000000745 -0.25999999046
          -0.012500000186 0.050000000745 1.2999999523 0.0625 0.050000000745 1.2999999523
          0.0625 0.050000000745 -0.25999999046 -0.012500000186 0.050000000745 -0.25999999046
          0.0625 0.050000000745 -0.25999999046 0.0625 0.050000000745 1.2999999523
          -0.012500000186 0.050000000745 1.2999999523 -0.012500000186 0.050000000745 -0.25999999046
          -0.012500000186 -0.012500000186 0 -0.012500000186 0.0625 0
          0.0625 0.0625 0 0.0625 -0.012500000186 0
          -0.012500000186 -0.012500000186 0 0.0625 -0.012500000186 0
          0.0625 0.0625 0 -0.012500000186 0.0625 0
          -0.012500000186 -0.012500000186 0 -0.012500000186 -0.012500000186 0
          -0.012500000186 0.0625 0 -0.012500000186 0.0625 0
          0.0625 0.0625 0 0.0625 -0.012500000186 0
          0.0625 -0.012500000186 0 0.0625 0.0625 0
          -0.012500000186 0.0625 0 0.0625 0.0625 0
          0.0625 0.0625 0 -0.012500000186 0.0625 0
          0.0625 -0.012500000186 0 0.0625 -0.012500000186 0
          -0.012500000186 -0.012500000186 0 -0.012500000186 -0.012500000186 0
          -0.012500000186 -0.012500000186 1.0399999619 -0.012500000186 0.0625 1.0399999619
          0.0625 0.0625 1.0399999619 0.0625 -0.012500000186 1.0399999619
          -0.012500000186 -0.012500000186 1.0399999619 0.0625 -0.012500000186 1.0399999619
          0.0625 0.0625 1.0399999619 -0.012500000186 0.0625 1.0399999619
          -0.012500000186 -0.012500000186 1.0399999619 -0.012500000186 -0.012500000186 1.0399999619
          -0.012500000186 0.0625 1.0399999619 -0.012500000186 0.0625 1.0399999619
          0.0625 0.0625 1.0399999619 0.0625 -0.012500000186 1.0399999619
          0.0625 -0.012500000186 1.0399999619 0.0625 0.0625 1.0399999619
          -0.012500000186 0.0625 1.0399999619 0.0625 0.0625 1.0399999619
          0.0625 0.0625 1.0399999619 -0.012500000186 0.0625 1.0399999619
          0.0625 -0.012500000186 1.0399999619 0.0625 -0.012500000186 1.0399999619
          -0.012500000186 -0.012500000186 1.0399999619 -0.012500000186 -0.012500000186 1.0399999619
        </DataArray>
      </Points>
      <Cells>
        <DataArray type="Int64" Name="connectivity" format="ascii" RangeMin="0" RangeMax="143">
          0 1 2 3 4 5
          6 7 8 9 10 11
          12 13 14 15 16 17
          18 19 20 21 22 23
          24 25 26 27 28 29
          30 31 32 33 34 35
          36 37 38 39 40 41
          42 43 44 45 46 47
          48 49 50 51 52 53
          54 55 56 57 58 59
          60 61 62 63 64 65
          66 67 68 69 70 71
          72 73 74 75 76 77
          78 79 80 81 82 83
          84 85 86 87 88 89
          90 91 92 93 94 95
          96 97 98 99 100 101
          102 103 104 105 106 107
          108 109 110 111 112 113
          114 115 116 117 118 119
          120 121 122 123 124 125
          126 127 128 129 130 131
          132 133 134 135 136 137
          138 139 140 141 142 143
        </DataArray>
        <DataArray type="Int64" Name="offsets" format="ascii" RangeMin="4" RangeMax="144">
          4 8 12 16 20 24
          28 32 36 40 44 48
          52 56 60 64 68 72
          76 80 84 88 92 96
          100 104 108 112 116 120
          124 128 132 136 140 144
        </DataArray>
        <DataArray type="UInt8" Name="types" format="ascii" RangeMin="9" RangeMax="9">
          9 9 9 9 9 9
          9 9 9 9 9 9
          9 9 9 9 9 9
          9 9 9 9 9 9
          9 9 9 9 9 9
          9 9 9 9 9 9
        </DataArray>
      </Cells>
    </Piece>
  </UnstructuredGrid>
</VTKFile>
