<?xml version="1.0"?>
<VTKFile type="UnstructuredGrid" version="0.1" byte_order="LittleEndian" compressor="vtkZLibDataCompressor">
  <UnstructuredGrid>
    <Piece NumberOfPoints="144" NumberOfCells="36">
      <PointData>
      </PointData>
      <CellData>
        <DataArray type="Float64" Name="color" NumberOfComponents="3" format="ascii" RangeMin="0.64890848455" RangeMax="1.1519771516">
          0.254175025 0.46188782719 0.67262748884 0.254175025 0.46188782719 0.67262748884
          0.254175025 0.46188782719 0.67262748884 0.254175025 0.46188782719 0.67262748884
          0.254175025 0.46188782719 0.67262748884 0.254175025 0.46188782719 0.67262748884
          0.65757040407 0.72862859229 0.46436257493 0.65757040407 0.72862859229 0.46436257493
          0.65757040407 0.72862859229 0.46436257493 0.65757040407 0.72862859229 0.46436257493
          0.65757040407 0.72862859229 0.46436257493 0.65757040407 0.72862859229 0.46436257493
          0.49320564909 0.40417917374 0.95939498693 0.49320564909 0.40417917374 0.95939498693
          0.49320564909 0.40417917374 0.95939498693 0.49320564909 0.40417917374 0.95939498693
          0.49320564909 0.40417917374 0.95939498693 0.49320564909 0.40417917374 0.95939498693
          0.3497942168 0.66704210885 0.46105759352 0.3497942168 0.66704210885 0.46105759352
          0.3497942168 0.66704210885 0.46105759352 0.3497942168 0.66704210885 0.46105759352
          0.3497942168 0.66704210885 0.46105759352 0.3497942168 0.66704210885 0.46105759352
          0.39452839527 0.27636873013 0.43479867945 0.39452839527 0.27636873013 0.43479867945
          0.39452839527 0.27636873013 0.43479867945 0.39452839527 0.27636873013 0.43479867945
          0.39452839527 0.27636873013 0.43479867945 0.39452839527 0.27636873013 0.43479867945
          0.18252775147 0.50806849645 0.74844948559 0.18252775147 0.50806849645 0.74844948559
          0.18252775147 0.50806849645 0.74844948559 0.18252775147 0.50806849645 0.74844948559
          0.18252775147 0.50806849645 0.74844948559 0.18252775147 0.50806849645 0.74844948559
        </DataArray>
        <DataArray type="Float64" Name="stressVec" NumberOfComponents="3" format="ascii" RangeMin="0" RangeMax="700575.17329">
          107470.8953 0 0 107470.8953 0 0
          107470.8953 0 0 107470.8953 0 0
          107470.8953 0 0 107470.8953 0 0
          -160404.42834 0 0 -160404.42834 0 0
          -160404.42834 0 0 -160404.42834 0 0
          -160404.42834 0 0 -160404.42834 0 0
          0 106880.44714 0 0 106880.44714 0
          0 106880.44714 0 0 106880.44714 0
          0 106880.44714 0 0 106880.44714 0
          0 -137282.94322 0 0 -137282.94322 0
          0 -137282.94322 0 0 -137282.94322 0
          0 -137282.94322 0 0 -137282.94322 0
          0 0 700575.17329 0 0 700575.17329
          0 0 700575.17329 0 0 700575.17329
          0 0 700575.17329 0 0 700575.17329
          0 0 0 0 0 0
          0 0 0 0 0 0
          0 0 0 0 0 0
        </DataArray>
        <DataArray type="Float64" Name="stressLen" format="ascii" RangeMin="0" RangeMax="700575.17329">
          107470.8953 107470.8953 107470.8953 107470.8953 107470.8953 107470.8953
          160404.42834 160404.42834 160404.42834 160404.42834 160404.42834 160404.42834
          106880.44714 106880.44714 106880.44714 106880.44714 106880.44714 106880.44714
          137282.94322 137282.94322 137282.94322 137282.94322 137282.94322 137282.94322
          700575.17329 700575.17329 700575.17329 700575.17329 700575.17329 700575.17329
          0 0 0 0 0 0
        </DataArray>
        <DataArray type="Float64" Name="forceVec" NumberOfComponents="3" format="ascii" RangeMin="0" RangeMax="0.65821298351">
          -0.10113063418 0 0 -0.10113063418 0 0
          -0.10113063418 0 0 -0.10113063418 0 0
          -0.10113063418 0 0 -0.10113063418 0 0
          0.10113020567 0 0 0.10113020567 0 0
          0.10113020567 0 0 0.10113020567 0 0
          0.10113020567 0 0 0.10113020567 0 0
          0 -0.10398963444 0 0 -0.10398963444 0
          0 -0.10398963444 0 0 -0.10398963444 0
          0 -0.10398963444 0 0 -0.10398963444 0
          0 0.10399012641 0 0 0.10399012641 0
          0 0.10399012641 0 0 0.10399012641 0
          0 0.10399012641 0 0 0.10399012641 0
          0 0 -0.65821298351 0 0 -0.65821298351
          0 0 -0.65821298351 0 0 -0.65821298351
          0 0 -0.65821298351 0 0 -0.65821298351
          0 0 0 0 0 0
          0 0 0 0 0 0
          0 0 0 0 0 0
        </DataArray>
        <DataArray type="Float64" Name="forceLen" format="ascii" RangeMin="0" RangeMax="0.65821298351">
          0.10113063418 0.10113063418 0.10113063418 0.10113063418 0.10113063418 0.10113063418
          0.10113020567 0.10113020567 0.10113020567 0.10113020567 0.10113020567 0.10113020567
          0.10398963444 0.10398963444 0.10398963444 0.10398963444 0.10398963444 0.10398963444
          0.10399012641 0.10399012641 0.10399012641 0.10399012641 0.10399012641 0.10399012641
          0.65821298351 0.65821298351 0.65821298351 0.65821298351 0.65821298351 0.65821298351
          0 0 0 0 0 0
        </DataArray>
        <DataArray type="Float64" Name="torqueVec" NumberOfComponents="3" format="ascii" RangeMin="0" RangeMax="0">
          0 0 0 0 0 0
          0 0 0 0 0 0
          0 0 0 0 0 0
          0 0 0 0 0 0
          0 0 0 0 0 0
          0 0 0 0 0 0
          0 0 0 0 0 0
          0 0 0 0 0 0
          0 0 0 0 0 0
          0 0 0 0 0 0
          0 0 0 0 0 0
          0 0 0 0 0 0
          0 0 0 0 0 0
          0 0 0 0 0 0
          0 0 0 0 0 0
          0 0 0 0 0 0
          0 0 0 0 0 0
          0 0 0 0 0 0
        </DataArray>
        <DataArray type="Float64" Name="torqueLen" format="ascii" RangeMin="0" RangeMax="0">
          0 0 0 0 0 0
          0 0 0 0 0 0
          0 0 0 0 0 0
          0 0 0 0 0 0
          0 0 0 0 0 0
          0 0 0 0 0 0
        </DataArray>
        <DataArray type="Float64" Name="materialId" format="ascii" RangeMin="0" RangeMax="0">
          0 0 0 0 0 0
          0 0 0 0 0 0
          0 0 0 0 0 0
          0 0 0 0 0 0
          0 0 0 0 0 0
          0 0 0 0 0 0
        </DataArray>
        <DataArray type="Float64" Name="mask" format="ascii" RangeMin="1" RangeMax="1">
          1 1 1 1 1 1
          1 1 1 1 1 1
          1 1 1 1 1 1
          1 1 1 1 1 1
          1 1 1 1 1 1
          1 1 1 1 1 1
        </DataArray>
      </CellData>
      <Points>
        <DataArray type="Float32" Name="Points" NumberOfComponents="3" format="ascii" RangeMin="0.017677669793" RangeMax="1.3024615642">
          0 -0.012500000186 -0.25999999046 0 0.0625 -0.25999999046
          0 0.0625 -0.25999999046 0 -0.012500000186 -0.25999999046
          0 -0.012500000186 1.2999999523 0 -0.012500000186 1.2999999523
          0 0.0625 1.2999999523 0 0.0625 1.2999999523
          0 -0.012500000186 -0.25999999046 0 -0.012500000186 1.2999999523
          0 0.0625 1.2999999523 0 0.0625 -0.25999999046
          0 0.0625 1.2999999523 0 -0.012500000186 1.2999999523
          0 -0.012500000186 -0.25999999046 0 0.0625 -0.25999999046
          0 0.0625 1.2999999523 0 0.0625 1.2999999523
          0 0.0625 -0.25999999046 0 0.0625 -0.25999999046
          0 -0.012500000186 -0.25999999046 0 -0.012500000186 1.2999999523
          0 -0.012500000186 1.2999999523 0 -0.012500000186 -0.25999999046
          0.050000000745 -0.012500000186 -0.25999999046 0.050000000745 0.0625 -0.25999999046
          0.050000000745 0.0625 -0.25999999046 0.050000000745 -0.012500000186 -0.25999999046
          0.050000000745 -0.012500000186 1.2999999523 0.050000000745 -0.012500000186 1.2999999523
          0.050000000745 0.0625 1.2999999523 0.050000000745 0.0625 1.2999999523
          0.050000000745 -0.012500000186 -0.25999999046 0.050000000745 -0.012500000186 1.2999999523
          0.050000000745 0.0625 1.2999999523 0.050000000745 0.0625 -0.25999999046
          0.050000000745 0.0625 1.2999999523 0.050000000745 -0.012500000186 1.2999999523
          0.050000000745 -0.012500000186 -0.25999999046 0.050000000745 0.0625 -0.25999999046
          0.050000000745 0.0625 1.2999999523 0.050000000745 0.0625 1.2999999523
          0.050000000745 0.0625 -0.25999999046 0.050000000745 0.0625 -0.25999999046
          0.050000000745 -0.012500000186 -0.25999999046 0.050000000745 -0.012500000186 1.2999999523
          0.050000000745 -0.012500000186 1.2999999523 0.050000000745 -0.012500000186 -0.25999999046
          -0.012500000186 0 -0.25999999046 -0.012500000186 0 -0.25999999046
          0.0625 0 -0.25999999046 0.0625 0 -0.25999999046
          -0.012500000186 0 1.2999999523 0.0625 0 1.2999999523
          0.0625 0 1.2999999523 -0.012500000186 0 1.2999999523
          -0.012500000186 0 -0.25999999046 -0.012500000186 0 1.2999999523
          -0.012500000186 0 1.2999999523 -0.012500000186 0 -0.25999999046
          0.0625 0 1.2999999523 0.0625 0 1.2999999523
          0.0625 0 -0.25999999046 0.0625 0 -0.25999999046
          -0.012500000186 0 1.2999999523 0.0625 0 1.2999999523
          0.0625 0 -0.25999999046 -0.012500000186 0 -0.25999999046
          0.0625 0 -0.25999999046 0.0625 0 1.2999999523
          -0.012500000186 0 1.2999999523 -0.012500000186 0 -0.25999999046
          -0.012500000186 0.050000000745 -0.25999999046 -0.012500000186 0.050000000745 -0.25999999046
          0.0625 0.050000000745 -0.25999999046 0.0625 0.050000000745 -0.25999999046
          -0.012500000186 0.050000000745 1.2999999523 0.0625 0.050000000745 1.2999999523
          0.0625 0.050000000745 1.2999999523 -0.012500000186 0.050000000745 1.2999999523
          -0.012500000186 0.050000000745 -0.25999999046 -0.012500000186 0.050000000745 1.2999999523
          -0.012500000186 0.050000000745 1.2999999523 -0.012500000186 0.050000000745 -0.25999999046
          0.0625 0.050000000745 1.2999999523 0.0625 0.050000000745 1.2999999523
          0.0625 0.050000000745 -0.25999999046 0.0625 0.050000000745 -0.25999999046
          -0.012500000186 0.050000000745 1.2999999523 0.0625 0.050000000745 1.2999999523
          0.0625 0.050000000745 -0.25999999046 -0.012500000186 0.050000000745 -0.25999999046
          0.0625 0.050000000745 -0.25999999046 0.0625 0.050000000745 1.2999999523
          -0.012500000186 0.050000000745 1.2999999523 -0.012500000186 0.050000000745 -0.25999999046
          -0.012500000186 -0.012500000186 0 -0.012500000186 0.0625 0
          0.0625 0.0625 0 0.0625 -0.012500000186 0
          -0.012500000186 -0.012500000186 0 0.0625 -0.012500000186 0
          0.0625 0.0625 0 -0.012500000186 0.0625 0
          -0.012500000186 -0.012500000186 0 -0.012500000186 -0.012500000186 0
          -0.012500000186 0.0625 0 -0.012500000186 0.0625 0
          0.0625 0.0625 0 0.0625 -0.012500000186 0
          0.0625 -0.012500000186 0 0.0625 0.0625 0
          -0.012500000186 0.0625 0 0.0625 0.0625 0
          0.0625 0.0625 0 -0.012500000186 0.0625 0
          0.0625 -0.012500000186 0 0.0625 -0.012500000186 0
          -0.012500000186 -0.012500000186 0 -0.012500000186 -0.012500000186 0
          -0.012500000186 -0.012500000186 1.0054605007 -0.012500000186 0.0625 1.0054605007
          0.0625 0.0625 1.0054605007 0.0625 -0.012500000186 1.0054605007
          -0.012500000186 -0.012500000186 1.0054605007 0.0625 -0.012500000186 1.0054605007
          0.0625 0.0625 1.0054605007 -0.012500000186 0.0625 1.0054605007
          -0.012500000186 -0.012500000186 1.0054605007 -0.012500000186 -0.012500000186 1.0054605007
          -0.012500000186 0.0625 1.0054605007 -0.012500000186 0.0625 1.0054605007
          0.0625 0.0625 1.0054605007 0.0625 -0.012500000186 1.0054605007
          0.0625 -0.012500000186 1.0054605007 0.0625 0.0625 1.0054605007
          -0.012500000186 0.0625 1.0054605007 0.0625 0.0625 1.0054605007
          0.0625 0.0625 1.0054605007 -0.012500000186 0.0625 1.0054605007
          0.0625 -0.012500000186 1.0054605007 0.0625 -0.012500000186 1.0054605007
          -0.012500000186 -0.012500000186 1.0054605007 -0.012500000186 -0.012500000186 1.0054605007
        </DataArray>
      </Points>
      <Cells>
        <DataArray type="Int64" Name="connectivity" format="ascii" RangeMin="0" RangeMax="143">
          0 1 2 3 4 5
          6 7 8 9 10 11
          12 13 14 15 16 17
          18 19 20 21 22 23
          24 25 26 27 28 29
          30 31 32 33 34 35
          36 37 38 39 40 41
          42 43 44 45 46 47
          48 49 50 51 52 53
          54 55 56 57 58 59
          60 61 62 63 64 65
          66 67 68 69 70 71
          72 73 74 75 76 77
          78 79 80 81 82 83
          84 85 86 87 88 89
          90 91 92 93 94 95
          96 97 98 99 100 101
          102 103 104 105 106 107
          108 109 110 111 112 113
          114 115 116 117 118 119
          120 121 122 123 124 125
          126 127 128 129 130 131
          132 133 134 135 136 137
          138 139 140 141 142 143
        </DataArray>
        <DataArray type="Int64" Name="offsets" format="ascii" RangeMin="4" RangeMax="144">
          4 8 12 16 20 24
          28 32 36 40 44 48
          52 56 60 64 68 72
          76 80 84 88 92 96
          100 104 108 112 116 120
          124 128 132 136 140 144
        </DataArray>
        <DataArray type="UInt8" Name="types" format="ascii" RangeMin="9" RangeMax="9">
          9 9 9 9 9 9
          9 9 9 9 9 9
          9 9 9 9 9 9
          9 9 9 9 9 9
          9 9 9 9 9 9
          9 9 9 9 9 9
        </DataArray>
      </Cells>
    </Piece>
  </UnstructuredGrid>
</VTKFile>
