<?xml version="1.0"?>
<VTKFile type="UnstructuredGrid" version="0.1" byte_order="LittleEndian" compressor="vtkZLibDataCompressor">
  <UnstructuredGrid>
    <Piece NumberOfPoints="144" NumberOfCells="36">
      <PointData>
      </PointData>
      <CellData>
        <DataArray type="Float64" Name="color" NumberOfComponents="3" format="ascii" RangeMin="0.30694978765" RangeMax="1.3264448588">
          0.22304845372 0.98995671212 0.85421956131 0.22304845372 0.98995671212 0.85421956131
          0.22304845372 0.98995671212 0.85421956131 0.22304845372 0.98995671212 0.85421956131
          0.22304845372 0.98995671212 0.85421956131 0.22304845372 0.98995671212 0.85421956131
          0.67957198949 0.27774331734 0.64302000229 0.67957198949 0.27774331734 0.64302000229
          0.67957198949 0.27774331734 0.64302000229 0.67957198949 0.27774331734 0.64302000229
          0.67957198949 0.27774331734 0.64302000229 0.67957198949 0.27774331734 0.64302000229
          0.7304306845 0.4511477499 0.37433174387 0.7304306845 0.4511477499 0.37433174387
          0.7304306845 0.4511477499 0.37433174387 0.7304306845 0.4511477499 0.37433174387
          0.7304306845 0.4511477499 0.37433174387 0.7304306845 0.4511477499 0.37433174387
          0.095415639973 0.083602534322 0.27950786043 0.095415639973 0.083602534322 0.27950786043
          0.095415639973 0.083602534322 0.27950786043 0.095415639973 0.083602534322 0.27950786043
          0.095415639973 0.083602534322 0.27950786043 0.095415639973 0.083602534322 0.27950786043
          0.0062172961156 0.75854026578 0.79540145867 0.0062172961156 0.75854026578 0.79540145867
          0.0062172961156 0.75854026578 0.79540145867 0.0062172961156 0.75854026578 0.79540145867
          0.0062172961156 0.75854026578 0.79540145867 0.0062172961156 0.75854026578 0.79540145867
          0.74476925797 0.3440829692 0.62892721023 0.74476925797 0.3440829692 0.62892721023
          0.74476925797 0.3440829692 0.62892721023 0.74476925797 0.3440829692 0.62892721023
          0.74476925797 0.3440829692 0.62892721023 0.74476925797 0.3440829692 0.62892721023
        </DataArray>
        <DataArray type="Float64" Name="stressVec" NumberOfComponents="3" format="ascii" RangeMin="0" RangeMax="950531.14636">
          14409.030517 0 0 14409.030517 0 0
          14409.030517 0 0 14409.030517 0 0
          14409.030517 0 0 14409.030517 0 0
          -43613.552998 0 0 -43613.552998 0 0
          -43613.552998 0 0 -43613.552998 0 0
          -43613.552998 0 0 -43613.552998 0 0
          0 12844.748864 0 0 12844.748864 0
          0 12844.748864 0 0 12844.748864 0
          0 12844.748864 0 0 12844.748864 0
          0 -21693.915749 0 0 -21693.915749 0
          0 -21693.915749 0 0 -21693.915749 0
          0 -21693.915749 0 0 -21693.915749 0
          0 0 950531.14636 0 0 950531.14636
          0 0 950531.14636 0 0 950531.14636
          0 0 950531.14636 0 0 950531.14636
          0 0 0 0 0 0
          0 0 0 0 0 0
          0 0 0 0 0 0
        </DataArray>
        <DataArray type="Float64" Name="stressLen" format="ascii" RangeMin="0" RangeMax="950531.14636">
          14409.030517 14409.030517 14409.030517 14409.030517 14409.030517 14409.030517
          43613.552998 43613.552998 43613.552998 43613.552998 43613.552998 43613.552998
          12844.748864 12844.748864 12844.748864 12844.748864 12844.748864 12844.748864
          21693.915749 21693.915749 21693.915749 21693.915749 21693.915749 21693.915749
          950531.14636 950531.14636 950531.14636 950531.14636 950531.14636 950531.14636
          0 0 0 0 0 0
        </DataArray>
        <DataArray type="Float64" Name="forceVec" NumberOfComponents="3" format="ascii" RangeMin="0" RangeMax="0.11728891226">
          -0.00034999883831 0 0 -0.00034999883831 0 0
          -0.00034999883831 0 0 -0.00034999883831 0 0
          -0.00034999883831 0 0 -0.00034999883831 0 0
          0.0012183796131 0 0 0.0012183796131 0 0
          0.0012183796131 0 0 0.0012183796131 0 0
          0.0012183796131 0 0 0.0012183796131 0 0
          0 -0.00028408608905 0 0 -0.00028408608905 0
          0 -0.00028408608905 0 0 -0.00028408608905 0
          0 -0.00028408608905 0 0 -0.00028408608905 0
          0 0.00062446737058 0 0 0.00062446737058 0
          0 0.00062446737058 0 0 0.00062446737058 0
          0 0.00062446737058 0 0 0.00062446737058 0
          0 0 -0.11728891226 0 0 -0.11728891226
          0 0 -0.11728891226 0 0 -0.11728891226
          0 0 -0.11728891226 0 0 -0.11728891226
          0 0 0 0 0 0
          0 0 0 0 0 0
          0 0 0 0 0 0
        </DataArray>
        <DataArray type="Float64" Name="forceLen" format="ascii" RangeMin="0" RangeMax="0.11728891226">
          0.00034999883831 0.00034999883831 0.00034999883831 0.00034999883831 0.00034999883831 0.00034999883831
          0.0012183796131 0.0012183796131 0.0012183796131 0.0012183796131 0.0012183796131 0.0012183796131
          0.00028408608905 0.00028408608905 0.00028408608905 0.00028408608905 0.00028408608905 0.00028408608905
          0.00062446737058 0.00062446737058 0.00062446737058 0.00062446737058 0.00062446737058 0.00062446737058
          0.11728891226 0.11728891226 0.11728891226 0.11728891226 0.11728891226 0.11728891226
          0 0 0 0 0 0
        </DataArray>
        <DataArray type="Float64" Name="torqueVec" NumberOfComponents="3" format="ascii" RangeMin="0" RangeMax="0">
          0 0 0 0 0 0
          0 0 0 0 0 0
          0 0 0 0 0 0
          0 0 0 0 0 0
          0 0 0 0 0 0
          0 0 0 0 0 0
          0 0 0 0 0 0
          0 0 0 0 0 0
          0 0 0 0 0 0
          0 0 0 0 0 0
          0 0 0 0 0 0
          0 0 0 0 0 0
          0 0 0 0 0 0
          0 0 0 0 0 0
          0 0 0 0 0 0
          0 0 0 0 0 0
          0 0 0 0 0 0
          0 0 0 0 0 0
        </DataArray>
        <DataArray type="Float64" Name="torqueLen" format="ascii" RangeMin="0" RangeMax="0">
          0 0 0 0 0 0
          0 0 0 0 0 0
          0 0 0 0 0 0
          0 0 0 0 0 0
          0 0 0 0 0 0
          0 0 0 0 0 0
        </DataArray>
        <DataArray type="Float64" Name="materialId" format="ascii" RangeMin="0" RangeMax="0">
          0 0 0 0 0 0
          0 0 0 0 0 0
          0 0 0 0 0 0
          0 0 0 0 0 0
          0 0 0 0 0 0
          0 0 0 0 0 0
        </DataArray>
        <DataArray type="Float64" Name="mask" format="ascii" RangeMin="1" RangeMax="1">
          1 1 1 1 1 1
          1 1 1 1 1 1
          1 1 1 1 1 1
          1 1 1 1 1 1
          1 1 1 1 1 1
          1 1 1 1 1 1
        </DataArray>
      </CellData>
      <Points>
        <DataArray type="Float32" Name="Points" NumberOfComponents="3" format="ascii" RangeMin="0.017677669793" RangeMax="1.4646885097">
          0 -0.012500000186 -0.29249998927 0 0.0625 -0.29249998927
          0 0.0625 -0.29249998927 0 -0.012500000186 -0.29249998927
          0 -0.012500000186 1.4624999762 0 -0.012500000186 1.4624999762
          0 0.0625 1.4624999762 0 0.0625 1.4624999762
          0 -0.012500000186 -0.29249998927 0 -0.012500000186 1.4624999762
          0 0.0625 1.4624999762 0 0.0625 -0.29249998927
          0 0.0625 1.4624999762 0 -0.012500000186 1.4624999762
          0 -0.012500000186 -0.29249998927 0 0.0625 -0.29249998927
          0 0.0625 1.4624999762 0 0.0625 1.4624999762
          0 0.0625 -0.29249998927 0 0.0625 -0.29249998927
          0 -0.012500000186 -0.29249998927 0 -0.012500000186 1.4624999762
          0 -0.012500000186 1.4624999762 0 -0.012500000186 -0.29249998927
          0.050000000745 -0.012500000186 -0.29249998927 0.050000000745 0.0625 -0.29249998927
          0.050000000745 0.0625 -0.29249998927 0.050000000745 -0.012500000186 -0.29249998927
          0.050000000745 -0.012500000186 1.4624999762 0.050000000745 -0.012500000186 1.4624999762
          0.050000000745 0.0625 1.4624999762 0.050000000745 0.0625 1.4624999762
          0.050000000745 -0.012500000186 -0.29249998927 0.050000000745 -0.012500000186 1.4624999762
          0.050000000745 0.0625 1.4624999762 0.050000000745 0.0625 -0.29249998927
          0.050000000745 0.0625 1.4624999762 0.050000000745 -0.012500000186 1.4624999762
          0.050000000745 -0.012500000186 -0.29249998927 0.050000000745 0.0625 -0.29249998927
          0.050000000745 0.0625 1.4624999762 0.050000000745 0.0625 1.4624999762
          0.050000000745 0.0625 -0.29249998927 0.050000000745 0.0625 -0.29249998927
          0.050000000745 -0.012500000186 -0.29249998927 0.050000000745 -0.012500000186 1.4624999762
          0.050000000745 -0.012500000186 1.4624999762 0.050000000745 -0.012500000186 -0.29249998927
          -0.012500000186 0 -0.29249998927 -0.012500000186 0 -0.29249998927
          0.0625 0 -0.29249998927 0.0625 0 -0.29249998927
          -0.012500000186 0 1.4624999762 0.0625 0 1.4624999762
          0.0625 0 1.4624999762 -0.012500000186 0 1.4624999762
          -0.012500000186 0 -0.29249998927 -0.012500000186 0 1.4624999762
          -0.012500000186 0 1.4624999762 -0.012500000186 0 -0.29249998927
          0.0625 0 1.4624999762 0.0625 0 1.4624999762
          0.0625 0 -0.29249998927 0.0625 0 -0.29249998927
          -0.012500000186 0 1.4624999762 0.0625 0 1.4624999762
          0.0625 0 -0.29249998927 -0.012500000186 0 -0.29249998927
          0.0625 0 -0.29249998927 0.0625 0 1.4624999762
          -0.012500000186 0 1.4624999762 -0.012500000186 0 -0.29249998927
          -0.012500000186 0.050000000745 -0.29249998927 -0.012500000186 0.050000000745 -0.29249998927
          0.0625 0.050000000745 -0.29249998927 0.0625 0.050000000745 -0.29249998927
          -0.012500000186 0.050000000745 1.4624999762 0.0625 0.050000000745 1.4624999762
          0.0625 0.050000000745 1.4624999762 -0.012500000186 0.050000000745 1.4624999762
          -0.012500000186 0.050000000745 -0.29249998927 -0.012500000186 0.050000000745 1.4624999762
          -0.012500000186 0.050000000745 1.4624999762 -0.012500000186 0.050000000745 -0.29249998927
          0.0625 0.050000000745 1.4624999762 0.0625 0.050000000745 1.4624999762
          0.0625 0.050000000745 -0.29249998927 0.0625 0.050000000745 -0.29249998927
          -0.012500000186 0.050000000745 1.4624999762 0.0625 0.050000000745 1.4624999762
          0.0625 0.050000000745 -0.29249998927 -0.012500000186 0.050000000745 -0.29249998927
          0.0625 0.050000000745 -0.29249998927 0.0625 0.050000000745 1.4624999762
          -0.012500000186 0.050000000745 1.4624999762 -0.012500000186 0.050000000745 -0.29249998927
          -0.012500000186 -0.012500000186 0 -0.012500000186 0.0625 0
          0.0625 0.0625 0 0.0625 -0.012500000186 0
          -0.012500000186 -0.012500000186 0 0.0625 -0.012500000186 0
          0.0625 0.0625 0 -0.012500000186 0.0625 0
          -0.012500000186 -0.012500000186 0 -0.012500000186 -0.012500000186 0
          -0.012500000186 0.0625 0 -0.012500000186 0.0625 0
          0.0625 0.0625 0 0.0625 -0.012500000186 0
          0.0625 -0.012500000186 0 0.0625 0.0625 0
          -0.012500000186 0.0625 0 0.0625 0.0625 0
          0.0625 0.0625 0 -0.012500000186 0.0625 0
          0.0625 -0.012500000186 0 0.0625 -0.012500000186 0
          -0.012500000186 -0.012500000186 0 -0.012500000186 -0.012500000186 0
          -0.012500000186 -0.012500000186 0.98097270727 -0.012500000186 0.0625 0.98097270727
          0.0625 0.0625 0.98097270727 0.0625 -0.012500000186 0.98097270727
          -0.012500000186 -0.012500000186 0.98097270727 0.0625 -0.012500000186 0.98097270727
          0.0625 0.0625 0.98097270727 -0.012500000186 0.0625 0.98097270727
          -0.012500000186 -0.012500000186 0.98097270727 -0.012500000186 -0.012500000186 0.98097270727
          -0.012500000186 0.0625 0.98097270727 -0.012500000186 0.0625 0.98097270727
          0.0625 0.0625 0.98097270727 0.0625 -0.012500000186 0.98097270727
          0.0625 -0.012500000186 0.98097270727 0.0625 0.0625 0.98097270727
          -0.012500000186 0.0625 0.98097270727 0.0625 0.0625 0.98097270727
          0.0625 0.0625 0.98097270727 -0.012500000186 0.0625 0.98097270727
          0.0625 -0.012500000186 0.98097270727 0.0625 -0.012500000186 0.98097270727
          -0.012500000186 -0.012500000186 0.98097270727 -0.012500000186 -0.012500000186 0.98097270727
        </DataArray>
      </Points>
      <Cells>
        <DataArray type="Int64" Name="connectivity" format="ascii" RangeMin="0" RangeMax="143">
          0 1 2 3 4 5
          6 7 8 9 10 11
          12 13 14 15 16 17
          18 19 20 21 22 23
          24 25 26 27 28 29
          30 31 32 33 34 35
          36 37 38 39 40 41
          42 43 44 45 46 47
          48 49 50 51 52 53
          54 55 56 57 58 59
          60 61 62 63 64 65
          66 67 68 69 70 71
          72 73 74 75 76 77
          78 79 80 81 82 83
          84 85 86 87 88 89
          90 91 92 93 94 95
          96 97 98 99 100 101
          102 103 104 105 106 107
          108 109 110 111 112 113
          114 115 116 117 118 119
          120 121 122 123 124 125
          126 127 128 129 130 131
          132 133 134 135 136 137
          138 139 140 141 142 143
        </DataArray>
        <DataArray type="Int64" Name="offsets" format="ascii" RangeMin="4" RangeMax="144">
          4 8 12 16 20 24
          28 32 36 40 44 48
          52 56 60 64 68 72
          76 80 84 88 92 96
          100 104 108 112 116 120
          124 128 132 136 140 144
        </DataArray>
        <DataArray type="UInt8" Name="types" format="ascii" RangeMin="9" RangeMax="9">
          9 9 9 9 9 9
          9 9 9 9 9 9
          9 9 9 9 9 9
          9 9 9 9 9 9
          9 9 9 9 9 9
          9 9 9 9 9 9
        </DataArray>
      </Cells>
    </Piece>
  </UnstructuredGrid>
</VTKFile>
